150 9070948
102 136 145 132 149 118 31 68 75 72 84 21 71 36 65 28 5 106 125 121 113 138 66 80 115 148 51 100 57 34 142 2 104 13 127 143 37 111 117 14 67 141 62 126 47 20 7 41 54 59 140 29 45 40 24 124 110 38 129 86 122 79 90 46 16 30 76 97 6 107 133 114 131 144 116 18 52 92 25 50 53 39 43 78 63 108 95 123 105 82 83 60 73 146 10 93 32 120 109 88 119 103 42 15 147 9 94 19 85 137 22 3 26 33 101 55 112 11 77 64 87 70 69 74 1 130 134 27 61 49 96 48 139 58 91 56 8 12 128 4 135 44 98 150 23 35 89 17 81 99 
